NAME : mEgtspf.pid7345.gtsp.268435626.tour
COMMENT : Length = 268435626
COMMENT : Found by LKH [Keld Helsgaun] Tue Mar 25 10:35:33 2025
TYPE : TOUR
DIMENSION : 170
TOUR_SECTION
1
114
111
112
113
167
168
169
170
9
54
51
52
53
6
117
118
115
116
3
87
88
89
90
126
123
124
125
21
22
19
20
5
2
86
83
84
85
41
42
39
40
45
46
43
44
71
72
73
74
132
133
134
131
7
10
4
76
77
78
75
64
65
66
63
61
62
59
60
58
55
56
57
49
50
47
48
166
163
164
165
38
35
36
37
26
23
24
25
147
148
149
150
67
68
69
70
144
145
146
143
152
153
154
151
155
156
157
158
103
104
105
106
162
159
160
161
100
101
102
99
92
93
94
91
15
16
17
18
128
129
130
127
137
138
135
136
30
27
28
29
141
142
139
140
120
121
122
119
97
98
95
96
34
31
32
33
8
81
82
79
80
108
109
110
107
12
13
14
11
-1
EOF
